# Objective value = 4630.08
I_0_0 1214
I_0_1 1314
I_0_2 1473
I_0_3 1931
I_1_0 126
I_1_1 126
I_1_2 63
I_1_3 0
I_2_0 22
I_2_1 -4.8849813083506888e-15
I_2_2 22
I_2_3 0
I_3_0 116
I_3_1 116
I_3_2 58
I_3_3 0
I_4_0 52
I_4_1 52
I_4_2 26
I_4_3 3.5527136788005009e-15
I_5_0 18
I_5_1 1.5987211554602248e-14
I_5_2 18
I_5_3 0
I_6_0 99
I_6_1 99
I_6_2 99
I_6_3 0
I_7_0 78
I_7_1 39
I_7_2 78
I_7_3 39
I_8_0 21
I_8_1 0
I_8_2 2.0999999999999996e+01
I_8_3 0
I_9_0 64
I_9_1 6.4000000000000028e+01
I_9_2 3.2000000000000014e+01
I_9_3 -1.2434497875801753e-14
I_10_0 160
I_10_1 160
I_10_2 80
I_10_3 0
q_1_0_0 63
q_1_0_1 0
q_1_0_2 0
q_1_1_0 0
q_1_1_1 0
q_1_1_2 0
q_2_0_0 0
q_2_0_1 44
q_2_0_2 0
q_2_1_0 -4.8849813083506888e-15
q_2_1_1 0
q_2_1_2 -3.5527136788005009e-15
q_3_0_0 0
q_3_0_1 0
q_3_0_2 0
q_3_1_0 58
q_3_1_1 0
q_3_1_2 0
q_4_0_0 0
q_4_0_1 0
q_4_0_2 7.1054273576010019e-15
q_4_1_0 26
q_4_1_1 -1.7763568394002505e-15
q_4_1_2 0
q_5_0_0 0
q_5_0_1 3.5999999999999986e+01
q_5_0_2 0
q_5_1_0 1.5987211554602248e-14
q_5_1_1 0
q_5_1_2 0
q_6_0_0 0
q_6_0_1 99
q_6_0_2 0
q_6_1_0 99
q_6_1_1 0
q_6_1_2 0
q_7_0_0 0
q_7_0_1 78
q_7_0_2 0
q_7_1_0 0
q_7_1_1 0
q_7_1_2 0
q_8_0_0 0
q_8_0_1 42
q_8_0_2 9.7699626167013776e-15
q_8_1_0 0
q_8_1_1 0
q_8_1_2 -7.72715225139109e-14
q_9_0_0 0
q_9_0_1 0
q_9_0_2 0
q_9_1_0 3.2000000000000028e+01
q_9_1_1 0
q_9_1_2 0
q_10_0_0 0
q_10_0_1 -1.7763568394002505e-15
q_10_0_2 0
q_10_1_0 80
q_10_1_1 1.7763568394002505e-15
q_10_1_2 0
y_0_0_0 1
y_0_0_1 1
y_0_0_2 0
y_0_1_0 1
y_0_1_1 0
y_0_1_2 -2.3592239273284576e-16
y_1_0_0 1
y_1_0_1 0
y_1_0_2 0
y_1_1_0 0
y_1_1_1 0
y_1_1_2 0
y_2_0_0 0
y_2_0_1 1
y_2_0_2 0
y_2_1_0 -2.2204460492503131e-16
y_2_1_1 0
y_2_1_2 0
y_3_0_0 0
y_3_0_1 0
y_3_0_2 0
y_3_1_0 1
y_3_1_1 0
y_3_1_2 0
y_4_0_0 0
y_4_0_1 0
y_4_0_2 0
y_4_1_0 1
y_4_1_1 0
y_4_1_2 0
y_5_0_0 0
y_5_0_1 1
y_5_0_2 0
y_5_1_0 8.8817841970012484e-16
y_5_1_1 0
y_5_1_2 0
y_6_0_0 0
y_6_0_1 1
y_6_0_2 0
y_6_1_0 1
y_6_1_1 0
y_6_1_2 0
y_7_0_0 0
y_7_0_1 1
y_7_0_2 0
y_7_1_0 0
y_7_1_1 0
y_7_1_2 0
y_8_0_0 0
y_8_0_1 1
y_8_0_2 1.5265566588595902e-16
y_8_1_0 0
y_8_1_1 0
y_8_1_2 -2.6367796834847468e-16
y_9_0_0 0
y_9_0_1 0
y_9_0_2 0
y_9_1_0 1.0000000000000009e+00
y_9_1_1 0
y_9_1_2 0
y_10_0_0 0
y_10_0_1 -2.7755575615628914e-17
y_10_0_2 0
y_10_1_0 1
y_10_1_1 0
y_10_1_2 0
x_0_1_0_0 2
x_0_1_0_1 0
x_0_1_0_2 0
x_0_1_1_0 0
x_0_1_1_1 0
x_0_1_1_2 0
x_0_2_0_0 0
x_0_2_0_1 0
x_0_2_0_2 0
x_0_2_1_0 0
x_0_2_1_1 0
x_0_2_1_2 0
x_0_3_0_0 0
x_0_3_0_1 0
x_0_3_0_2 0
x_0_3_1_0 0
x_0_3_1_1 0
x_0_3_1_2 0
x_0_4_0_0 0
x_0_4_0_1 0
x_0_4_0_2 -3.0531133177191805e-16
x_0_4_1_0 0
x_0_4_1_1 0
x_0_4_1_2 0
x_0_5_0_0 0
x_0_5_0_1 9.9999999999999978e-01
x_0_5_0_2 0
x_0_5_1_0 0
x_0_5_1_1 0
x_0_5_1_2 0
x_0_6_0_0 0
x_0_6_0_1 1.1102230246251585e-16
x_0_6_0_2 0
x_0_6_1_0 1
x_0_6_1_1 0
x_0_6_1_2 0
x_0_7_0_0 0
x_0_7_0_1 0
x_0_7_0_2 0
x_0_7_1_0 0
x_0_7_1_1 0
x_0_7_1_2 0
x_0_8_0_0 0
x_0_8_0_1 1
x_0_8_0_2 3.0531133177191805e-16
x_0_8_1_0 0
x_0_8_1_1 0
x_0_8_1_2 -5.2735593669694936e-16
x_0_9_0_0 0
x_0_9_0_1 -1.1102230246251565e-16
x_0_9_0_2 0
x_0_9_1_0 0
x_0_9_1_1 0
x_0_9_1_2 0
x_0_10_0_0 0
x_0_10_0_1 -1.1102230246251565e-16
x_0_10_0_2 0
x_0_10_1_0 1
x_0_10_1_1 0
x_0_10_1_2 0
x_1_2_0_0 0
x_1_2_0_1 0
x_1_2_0_2 0
x_1_2_1_0 0
x_1_2_1_1 0
x_1_2_1_2 0
x_1_3_0_0 0
x_1_3_0_1 0
x_1_3_0_2 0
x_1_3_1_0 0
x_1_3_1_1 0
x_1_3_1_2 0
x_1_4_0_0 0
x_1_4_0_1 0
x_1_4_0_2 0
x_1_4_1_0 0
x_1_4_1_1 0
x_1_4_1_2 0
x_1_5_0_0 0
x_1_5_0_1 0
x_1_5_0_2 0
x_1_5_1_0 0
x_1_5_1_1 0
x_1_5_1_2 0
x_1_6_0_0 0
x_1_6_0_1 0
x_1_6_0_2 0
x_1_6_1_0 0
x_1_6_1_1 0
x_1_6_1_2 0
x_1_7_0_0 0
x_1_7_0_1 0
x_1_7_0_2 0
x_1_7_1_0 0
x_1_7_1_1 0
x_1_7_1_2 0
x_1_8_0_0 0
x_1_8_0_1 0
x_1_8_0_2 0
x_1_8_1_0 0
x_1_8_1_1 0
x_1_8_1_2 0
x_1_9_0_0 0
x_1_9_0_1 0
x_1_9_0_2 0
x_1_9_1_0 0
x_1_9_1_1 0
x_1_9_1_2 0
x_1_10_0_0 0
x_1_10_0_1 0
x_1_10_0_2 0
x_1_10_1_0 0
x_1_10_1_1 0
x_1_10_1_2 0
x_2_3_0_0 0
x_2_3_0_1 1.1102230246251575e-16
x_2_3_0_2 0
x_2_3_1_0 -2.2204460492503091e-16
x_2_3_1_1 0
x_2_3_1_2 0
x_2_4_0_0 0
x_2_4_0_1 0
x_2_4_0_2 0
x_2_4_1_0 0
x_2_4_1_1 0
x_2_4_1_2 0
x_2_5_0_0 0
x_2_5_0_1 0
x_2_5_0_2 0
x_2_5_1_0 0
x_2_5_1_1 0
x_2_5_1_2 0
x_2_6_0_0 0
x_2_6_0_1 9.9999999999999978e-01
x_2_6_0_2 0
x_2_6_1_0 -2.2204460492503091e-16
x_2_6_1_1 0
x_2_6_1_2 0
x_2_7_0_0 0
x_2_7_0_1 1
x_2_7_0_2 0
x_2_7_1_0 0
x_2_7_1_1 0
x_2_7_1_2 0
x_2_8_0_0 0
x_2_8_0_1 0
x_2_8_0_2 0
x_2_8_1_0 0
x_2_8_1_1 0
x_2_8_1_2 0
x_2_9_0_0 0
x_2_9_0_1 0
x_2_9_0_2 0
x_2_9_1_0 0
x_2_9_1_1 0
x_2_9_1_2 0
x_2_10_0_0 0
x_2_10_0_1 0
x_2_10_0_2 0
x_2_10_1_0 0
x_2_10_1_1 0
x_2_10_1_2 0
x_3_4_0_0 0
x_3_4_0_1 0
x_3_4_0_2 2.6367796834847468e-16
x_3_4_1_0 9.9999999999999867e-01
x_3_4_1_1 0
x_3_4_1_2 0
x_3_5_0_0 0
x_3_5_0_1 0
x_3_5_0_2 -2.6367796834847468e-16
x_3_5_1_0 1.5543122344752188e-15
x_3_5_1_1 0
x_3_5_1_2 0
x_3_6_0_0 0
x_3_6_0_1 0
x_3_6_0_2 0
x_3_6_1_0 1
x_3_6_1_1 0
x_3_6_1_2 0
x_3_7_0_0 0
x_3_7_0_1 0
x_3_7_0_2 0
x_3_7_1_0 0
x_3_7_1_1 0
x_3_7_1_2 0
x_3_8_0_0 0
x_3_8_0_1 0
x_3_8_0_2 0
x_3_8_1_0 0
x_3_8_1_1 0
x_3_8_1_2 0
x_3_9_0_0 0
x_3_9_0_1 0
x_3_9_0_2 0
x_3_9_1_0 0
x_3_9_1_1 0
x_3_9_1_2 0
x_3_10_0_0 0
x_3_10_0_1 0
x_3_10_0_2 0
x_3_10_1_0 0
x_3_10_1_1 0
x_3_10_1_2 0
x_4_5_0_0 0
x_4_5_0_1 0
x_4_5_0_2 2.6367796834847468e-16
x_4_5_1_0 0
x_4_5_1_1 0
x_4_5_1_2 0
x_4_6_0_0 0
x_4_6_0_1 0
x_4_6_0_2 0
x_4_6_1_0 0
x_4_6_1_1 0
x_4_6_1_2 0
x_4_7_0_0 0
x_4_7_0_1 0
x_4_7_0_2 0
x_4_7_1_0 0
x_4_7_1_1 0
x_4_7_1_2 0
x_4_8_0_0 0
x_4_8_0_1 0
x_4_8_0_2 0
x_4_8_1_0 0
x_4_8_1_1 0
x_4_8_1_2 0
x_4_9_0_0 0
x_4_9_0_1 0
x_4_9_0_2 0
x_4_9_1_0 1.0000000000000022e+00
x_4_9_1_1 0
x_4_9_1_2 0
x_4_10_0_0 0
x_4_10_0_1 0
x_4_10_0_2 0
x_4_10_1_0 0
x_4_10_1_1 0
x_4_10_1_2 0
x_5_6_0_0 0
x_5_6_0_1 1.0000000000000002e+00
x_5_6_0_2 0
x_5_6_1_0 2.2204460492503091e-16
x_5_6_1_1 0
x_5_6_1_2 0
x_5_7_0_0 0
x_5_7_0_1 0
x_5_7_0_2 0
x_5_7_1_0 0
x_5_7_1_1 0
x_5_7_1_2 0
x_5_8_0_0 0
x_5_8_0_1 0
x_5_8_0_2 0
x_5_8_1_0 0
x_5_8_1_1 0
x_5_8_1_2 0
x_5_9_0_0 0
x_5_9_0_1 0
x_5_9_0_2 0
x_5_9_1_0 0
x_5_9_1_1 0
x_5_9_1_2 0
x_5_10_0_0 0
x_5_10_0_1 0
x_5_10_0_2 0
x_5_10_1_0 0
x_5_10_1_1 0
x_5_10_1_2 0
x_6_7_0_0 0
x_6_7_0_1 0
x_6_7_0_2 0
x_6_7_1_0 0
x_6_7_1_1 0
x_6_7_1_2 0
x_6_8_0_0 0
x_6_8_0_1 0
x_6_8_0_2 0
x_6_8_1_0 0
x_6_8_1_1 0
x_6_8_1_2 0
x_6_9_0_0 0
x_6_9_0_1 0
x_6_9_0_2 0
x_6_9_1_0 0
x_6_9_1_1 0
x_6_9_1_2 0
x_6_10_0_0 0
x_6_10_0_1 0
x_6_10_0_2 0
x_6_10_1_0 0
x_6_10_1_1 0
x_6_10_1_2 0
x_7_8_0_0 0
x_7_8_0_1 1
x_7_8_0_2 0
x_7_8_1_0 0
x_7_8_1_1 0
x_7_8_1_2 0
x_7_9_0_0 0
x_7_9_0_1 0
x_7_9_0_2 0
x_7_9_1_0 0
x_7_9_1_1 0
x_7_9_1_2 0
x_7_10_0_0 0
x_7_10_0_1 0
x_7_10_0_2 0
x_7_10_1_0 0
x_7_10_1_1 0
x_7_10_1_2 0
x_8_9_0_0 0
x_8_9_0_1 0
x_8_9_0_2 0
x_8_9_1_0 0
x_8_9_1_1 0
x_8_9_1_2 0
x_8_10_0_0 0
x_8_10_0_1 0
x_8_10_0_2 0
x_8_10_1_0 0
x_8_10_1_1 0
x_8_10_1_2 0
x_9_10_0_0 0
x_9_10_0_1 -1.3877787807814457e-16
x_9_10_0_2 0
x_9_10_1_0 1
x_9_10_1_1 0
x_9_10_1_2 0
